p tw 256 704
1 33
2 34
3 35
4 36
5 37
6 38
7 39
8 40
9 41
10 42
11 43
12 44
13 45
14 46
15 47
16 48
17 49
18 50
19 51
20 52
21 53
22 54
23 55
24 56
25 57
26 58
27 59
28 60
29 61
30 62
31 63
32 64
33 108
33 139
33 142
33 144
34 81
34 102
34 105
34 106
35 67
35 92
35 113
35 115
36 74
36 122
36 125
36 126
37 66
37 80
37 81
37 82
38 76
38 77
38 78
38 79
39 85
39 88
39 135
39 137
40 83
40 84
40 85
40 86
41 83
41 96
41 118
41 121
42 73
42 102
42 103
42 104
43 107
43 110
43 111
43 112
44 100
44 105
44 113
44 114
45 71
45 118
45 119
45 120
46 90
46 92
46 93
46 94
47 70
47 87
47 116
47 117
48 93
48 125
48 135
48 136
49 111
49 128
49 138
49 141
50 69
50 80
50 90
50 91
51 99
51 107
51 108
51 109
52 95
52 99
52 100
52 101
53 76
53 87
53 88
53 89
54 77
54 130
54 132
54 134
55 116
55 122
55 123
55 124
56 110
56 127
56 128
56 129
57 95
57 96
57 97
57 98
58 65
58 66
58 67
58 68
59 78
59 138
59 139
59 140
60 65
60 73
60 74
60 75
61 84
61 97
61 132
61 133
62 69
62 70
62 71
62 72
63 103
63 119
63 142
63 143
64 123
64 127
64 130
64 131
65 66
65 67
65 68
65 73
65 74
65 75
66 67
66 68
66 80
66 81
66 82
67 68
67 92
67 113
67 115
68 145
68 146
68 147
68 148
69 70
69 71
69 72
69 80
69 90
69 91
70 71
70 72
70 87
70 116
70 117
71 72
71 118
71 119
71 120
72 149
72 150
72 151
72 152
73 74
73 75
73 102
73 103
73 104
74 75
74 122
74 125
74 126
75 145
75 153
75 154
75 155
76 77
76 78
76 79
76 87
76 88
76 89
77 78
77 79
77 130
77 132
77 134
78 79
78 138
78 139
78 140
79 156
79 157
79 158
79 159
80 81
80 82
80 90
80 91
81 82
81 102
81 105
81 106
82 146
82 160
82 161
82 162
83 84
83 85
83 86
83 96
83 118
83 121
84 85
84 86
84 97
84 132
84 133
85 86
85 88
85 135
85 137
86 163
86 164
86 165
86 166
87 88
87 89
87 116
87 117
88 89
88 135
88 137
89 156
89 167
89 168
89 169
90 91
90 92
90 93
90 94
91 149
91 160
91 170
91 171
92 93
92 94
92 113
92 115
93 94
93 125
93 135
93 136
94 170
94 172
94 173
94 174
95 96
95 97
95 98
95 99
95 100
95 101
96 97
96 98
96 118
96 121
97 98
97 132
97 133
98 175
98 176
98 177
98 178
99 100
99 101
99 107
99 108
99 109
100 101
100 105
100 113
100 114
101 175
101 179
101 180
101 181
102 103
102 104
102 105
102 106
103 104
103 119
103 142
103 143
104 153
104 182
104 183
104 184
105 106
105 113
105 114
106 161
106 182
106 185
106 186
107 108
107 109
107 110
107 111
107 112
108 109
108 139
108 142
108 144
109 179
109 187
109 188
109 189
110 111
110 112
110 127
110 128
110 129
111 112
111 128
111 138
111 141
112 187
112 190
112 191
112 192
113 114
113 115
114 180
114 185
114 193
114 194
115 147
115 172
115 193
115 195
116 117
116 122
116 123
116 124
117 150
117 167
117 196
117 197
118 119
118 120
118 121
119 120
119 142
119 143
120 151
120 198
120 199
120 200
121 163
121 176
121 198
121 201
122 123
122 124
122 125
122 126
123 124
123 127
123 130
123 131
124 196
124 202
124 203
124 204
125 126
125 135
125 136
126 154
126 202
126 205
126 206
127 128
127 129
127 130
127 131
128 129
128 138
128 141
129 190
129 207
129 208
129 209
130 131
130 132
130 134
131 203
131 207
131 210
131 211
132 133
132 134
133 164
133 177
133 212
133 213
134 157
134 210
134 212
134 214
135 136
135 137
136 173
136 205
136 215
136 216
137 165
137 168
137 215
137 217
138 139
138 140
138 141
139 140
139 142
139 144
140 158
140 218
140 219
140 220
141 191
141 208
141 218
141 221
142 143
142 144
143 183
143 199
143 222
143 223
144 188
144 219
144 222
144 224
145 146
145 147
145 148
145 153
145 154
145 155
146 147
146 148
146 160
146 161
146 162
147 148
147 172
147 193
147 195
148 231
149 150
149 151
149 152
149 160
149 170
149 171
150 151
150 152
150 167
150 196
150 197
151 152
151 198
151 199
151 200
152 227
153 154
153 155
153 182
153 183
153 184
154 155
154 202
154 205
154 206
155 229
156 157
156 158
156 159
156 167
156 168
156 169
157 158
157 159
157 210
157 212
157 214
158 159
158 218
158 219
158 220
159 251
160 161
160 162
160 170
160 171
161 162
161 182
161 185
161 186
162 252
163 164
163 165
163 166
163 176
163 198
163 201
164 165
164 166
164 177
164 212
164 213
165 166
165 168
165 215
165 217
166 249
167 168
167 169
167 196
167 197
168 169
168 215
168 217
169 236
170 171
170 172
170 173
170 174
171 239
172 173
172 174
172 193
172 195
173 174
173 205
173 215
173 216
174 243
175 176
175 177
175 178
175 179
175 180
175 181
176 177
176 178
176 198
176 201
177 178
177 212
177 213
178 232
179 180
179 181
179 187
179 188
179 189
180 181
180 185
180 193
180 194
181 237
182 183
182 184
182 185
182 186
183 184
183 199
183 222
183 223
184 247
185 186
185 193
185 194
186 255
187 188
187 189
187 190
187 191
187 192
188 189
188 219
188 222
188 224
189 238
190 191
190 192
190 207
190 208
190 209
191 192
191 208
191 218
191 221
192 246
193 194
193 195
194 245
195 254
196 197
196 202
196 203
196 204
197 242
198 199
198 200
198 201
199 200
199 222
199 223
200 244
201 248
202 203
202 204
202 205
202 206
203 204
203 207
203 210
203 211
204 234
205 206
205 215
205 216
206 253
207 208
207 209
207 210
207 211
208 209
208 218
208 221
209 233
210 211
210 212
210 214
211 225
212 213
212 214
213 228
214 235
215 216
215 217
216 241
217 250
218 219
218 220
218 221
219 220
219 222
219 224
220 230
221 240
222 223
222 224
223 226
224 256
